graphs/games120.col
p edge 120 638
e 1 5
e 1 15
e 1 16
e 1 20
e 1 21
e 1 57
e 1 62
e 1 80
e 1 89
e 1 94
e 1 113
e 2 6
e 2 24
e 2 30
e 2 41
e 2 54
e 2 55
e 2 77
e 2 92
e 3 22
e 3 31
e 3 42
e 3 44
e 3 67
e 3 71
e 3 90
e 3 91
e 3 100
e 3 103
e 3 105
e 3 115
e 4 12
e 4 38
e 4 49
e 4 50
e 4 61
e 4 63
e 4 84
e 4 85
e 4 96
e 4 99
e 4 107
e 5 26
e 5 32
e 5 34
e 5 38
e 5 53
e 5 56
e 5 72
e 5 76
e 5 85
e 6 11
e 6 13
e 6 14
e 6 24
e 6 41
e 6 55
e 6 60
e 6 87
e 6 92
e 7 10
e 7 21
e 7 25
e 7 28
e 7 48
e 7 51
e 7 64
e 7 66
e 7 75
e 7 83
e 7 118
e 7 120
e 8 18
e 8 38
e 8 46
e 8 53
e 8 71
e 8 73
e 8 86
e 8 98
e 8 100
e 8 104
e 9 17
e 9 31
e 9 33
e 9 38
e 9 51
e 9 58
e 9 69
e 9 70
e 9 101
e 9 116
e 9 119
e 10 21
e 10 25
e 10 35
e 10 36
e 10 48
e 10 64
e 10 75
e 10 83
e 10 118
e 10 120
e 11 13
e 11 14
e 11 30
e 11 41
e 11 54
e 11 55
e 11 60
e 11 87
e 12 19
e 12 23
e 12 29
e 12 35
e 12 43
e 12 68
e 12 88
e 12 97
e 12 102
e 12 117
e 13 14
e 13 30
e 13 41
e 13 54
e 13 55
e 13 60
e 13 77
e 13 87
e 14 24
e 14 41
e 14 54
e 14 55
e 14 60
e 14 77
e 14 87
e 15 37
e 15 39
e 15 52
e 15 53
e 15 59
e 15 65
e 15 66
e 15 88
e 15 95
e 15 108
e 15 112
e 16 26
e 16 27
e 16 34
e 16 47
e 16 57
e 16 62
e 16 65
e 16 80
e 16 89
e 16 94
e 16 113
e 17 28
e 17 31
e 17 33
e 17 34
e 17 42
e 17 69
e 17 79
e 17 101
e 17 103
e 17 115
e 18 20
e 18 27
e 18 53
e 18 71
e 18 73
e 18 84
e 18 86
e 18 93
e 18 98
e 18 100
e 19 23
e 19 29
e 19 35
e 19 43
e 19 61
e 19 80
e 19 90
e 19 97
e 19 102
e 19 114
e 19 117
e 20 47
e 20 56
e 20 57
e 20 62
e 20 65
e 20 67
e 20 80
e 20 89
e 20 94
e 20 113
e 21 25
e 21 48
e 21 75
e 21 83
e 21 118
e 21 120
e 22 39
e 22 42
e 22 44
e 22 67
e 22 74
e 22 90
e 22 91
e 22 103
e 22 105
e 23 27
e 23 35
e 23 38
e 23 43
e 23 44
e 23 57
e 23 59
e 23 95
e 23 97
e 23 102
e 23 117
e 24 30
e 24 54
e 24 60
e 24 77
e 24 92
e 25 28
e 25 31
e 25 48
e 25 50
e 25 75
e 25 83
e 25 118
e 25 120
e 26 34
e 26 51
e 26 56
e 26 64
e 26 72
e 26 76
e 26 92
e 26 93
e 26 109
e 27 38
e 27 47
e 27 65
e 27 72
e 27 76
e 27 84
e 27 88
e 27 95
e 27 113
e 28 32
e 28 58
e 28 68
e 28 75
e 28 79
e 28 89
e 28 109
e 28 120
e 29 37
e 29 39
e 29 52
e 29 65
e 29 74
e 29 95
e 29 108
e 29 112
e 30 41
e 30 54
e 30 55
e 30 77
e 30 92
e 30 93
e 31 33
e 31 51
e 31 58
e 31 70
e 31 79
e 31 106
e 31 110
e 32 36
e 32 69
e 32 78
e 32 79
e 32 85
e 32 101
e 32 110
e 32 114
e 32 115
e 33 38
e 33 51
e 33 69
e 33 91
e 33 106
e 33 110
e 33 113
e 33 116
e 34 37
e 34 56
e 34 65
e 34 72
e 34 76
e 34 88
e 34 93
e 34 106
e 34 109
e 35 43
e 35 80
e 35 89
e 35 97
e 35 102
e 35 117
e 36 49
e 36 64
e 36 98
e 36 111
e 36 115
e 36 116
e 37 39
e 37 52
e 37 57
e 37 59
e 37 65
e 37 95
e 37 104
e 37 108
e 37 112
e 38 51
e 38 58
e 38 70
e 38 81
e 38 106
e 38 116
e 39 52
e 39 59
e 39 65
e 39 90
e 39 98
e 39 112
e 39 117
e 40 45
e 40 46
e 40 66
e 40 73
e 40 74
e 40 81
e 40 82
e 40 107
e 40 119
e 41 55
e 41 60
e 41 87
e 42 44
e 42 67
e 42 90
e 42 91
e 42 103
e 42 105
e 42 106
e 43 70
e 43 97
e 43 102
e 43 105
e 43 111
e 43 117
e 44 67
e 44 76
e 44 88
e 44 90
e 44 91
e 44 97
e 44 103
e 44 105
e 45 46
e 45 52
e 45 66
e 45 74
e 45 81
e 45 82
e 45 86
e 45 100
e 45 117
e 45 119
e 46 66
e 46 74
e 46 81
e 46 82
e 46 102
e 46 104
e 46 111
e 46 119
e 47 57
e 47 59
e 47 62
e 47 80
e 47 89
e 47 94
e 47 113
e 48 75
e 48 83
e 48 84
e 48 114
e 48 118
e 48 120
e 49 50
e 49 61
e 49 63
e 49 76
e 49 85
e 49 96
e 49 99
e 49 107
e 49 109
e 49 113
e 50 51
e 50 61
e 50 63
e 50 78
e 50 96
e 50 99
e 50 107
e 51 70
e 51 94
e 51 106
e 51 110
e 52 59
e 52 73
e 52 95
e 52 98
e 52 100
e 52 108
e 53 71
e 53 73
e 53 86
e 53 98
e 53 100
e 53 104
e 53 112
e 54 77
e 54 92
e 55 60
e 55 87
e 56 68
e 56 72
e 56 76
e 56 84
e 56 88
e 56 93
e 56 109
e 57 62
e 57 89
e 57 94
e 57 107
e 57 113
e 58 68
e 58 70
e 58 76
e 58 101
e 58 106
e 58 110
e 58 115
e 58 116
e 59 65
e 59 66
e 59 89
e 59 95
e 59 108
e 59 112
e 60 77
e 60 87
e 60 92
e 61 63
e 61 78
e 61 85
e 61 96
e 61 99
e 61 107
e 61 110
e 62 80
e 62 89
e 62 94
e 62 96
e 62 103
e 62 114
e 63 93
e 63 96
e 63 99
e 63 103
e 63 106
e 63 107
e 64 70
e 64 84
e 64 114
e 64 119
e 64 120
e 65 76
e 65 95
e 65 108
e 65 112
e 66 68
e 66 74
e 66 81
e 66 82
e 66 95
e 66 119
e 67 88
e 67 90
e 67 91
e 67 103
e 67 104
e 67 105
e 68 69
e 68 72
e 68 101
e 68 109
e 68 111
e 69 79
e 69 101
e 69 111
e 69 115
e 70 79
e 70 110
e 70 116
e 71 73
e 71 81
e 71 86
e 71 98
e 71 100
e 71 104
e 71 119
e 72 76
e 72 83
e 72 88
e 72 97
e 72 109
e 73 86
e 73 88
e 73 100
e 73 104
e 73 108
e 74 81
e 74 82
e 74 119
e 75 83
e 75 85
e 75 118
e 75 120
e 76 79
e 76 109
e 77 87
e 77 92
e 77 93
e 78 79
e 78 85
e 78 96
e 78 99
e 78 107
e 78 109
e 79 85
e 79 88
e 79 116
e 80 86
e 80 89
e 80 94
e 80 113
e 81 82
e 81 119
e 82 86
e 82 104
e 82 114
e 82 118
e 82 119
e 83 118
e 83 120
e 84 93
e 85 99
e 85 101
e 85 109
e 86 98
e 86 100
e 86 104
e 87 92
e 88 89
e 88 100
e 89 113
e 90 91
e 90 103
e 90 105
e 91 98
e 91 103
e 91 105
e 91 111
e 93 96
e 93 106
e 94 113
e 94 116
e 94 117
e 94 118
e 95 108
e 95 112
e 96 99
e 96 107
e 97 102
e 97 108
e 97 111
e 97 117
e 98 100
e 98 104
e 98 111
e 99 101
e 99 107
e 100 104
e 100 112
e 101 110
e 101 115
e 101 116
e 102 104
e 102 114
e 102 117
e 103 105
e 105 112
e 105 117
e 106 110
e 106 116
e 107 110
e 108 112
e 108 113
e 109 120
e 110 116
e 111 115
e 114 115
e 116 119
e 118 120
