results/clicolcom_results/games120.col.log
graphs/games120.col
c found max clique of size 9
c found chromatic number: 9
time: 0
